p cnf 787 586
d 0.875 0.125
d 0.875 0.125
d 0.875 0.125
d 0.875 0.125
d 0.875 0.125
d 0.875 0.125
d 0.875 0.125
d 0.875 0.125
d 0.875 0.125
d 0.875 0.125
d 0.875 0.125
d 0.875 0.125
d 0.875 0.125
d 0.875 0.125
d 0.875 0.125
d 0.875 0.125
d 0.875 0.125
d 0.875 0.125
d 0.875 0.125
d 0.875 0.125
d 0.875 0.125
d 0.875 0.125
d 0.875 0.125
d 0.875 0.125
d 0.875 0.125
d 0.875 0.125
d 0.875 0.125
d 0.875 0.125
d 0.875 0.125
d 0.875 0.125
d 0.875 0.125
d 0.875 0.125
d 0.875 0.125
d 0.875 0.125
d 0.875 0.125
d 0.875 0.125
d 0.875 0.125
d 0.875 0.125
d 0.875 0.125
d 0.875 0.125
d 0.875 0.125
d 0.875 0.125
d 0.875 0.125
d 0.875 0.125
d 0.875 0.125
d 0.875 0.125
d 0.875 0.125
d 0.875 0.125
d 0.875 0.125
d 0.875 0.125
d 0.875 0.125
d 0.875 0.125
d 0.875 0.125
d 0.875 0.125
d 0.875 0.125
d 0.875 0.125
d 0.875 0.125
d 0.875 0.125
d 0.875 0.125
d 0.875 0.125
d 0.875 0.125
d 0.875 0.125
d 0.875 0.125
d 0.875 0.125
d 0.875 0.125
d 0.875 0.125
d 0.875 0.125
d 0.875 0.125
d 0.875 0.125
d 0.875 0.125
d 0.875 0.125
d 0.875 0.125
d 0.875 0.125
d 0.875 0.125
d 0.875 0.125
d 0.875 0.125
d 0.875 0.125
d 0.875 0.125
d 0.875 0.125
d 0.875 0.125
d 0.875 0.125
d 0.875 0.125
d 0.875 0.125
d 0.875 0.125
d 0.875 0.125
d 0.875 0.125
d 0.875 0.125
d 0.875 0.125
d 0.875 0.125
d 0.875 0.125
d 0.875 0.125
d 0.875 0.125
d 0.875 0.125
d 0.875 0.125
d 0.875 0.125
d 0.875 0.125
d 0.875 0.125
d 0.875 0.125
d 0.875 0.125
d 0.875 0.125
d 0.875 0.125
d 0.875 0.125
d 0.875 0.125
d 0.875 0.125
d 0.875 0.125
d 0.875 0.125
d 0.875 0.125
d 0.875 0.125
d 0.875 0.125
d 0.875 0.125
d 0.875 0.125
d 0.875 0.125
d 0.875 0.125
d 0.875 0.125
d 0.875 0.125
d 0.875 0.125
d 0.875 0.125
d 0.875 0.125
d 0.875 0.125
d 0.875 0.125
d 0.875 0.125
d 0.875 0.125
d 0.875 0.125
d 0.875 0.125
d 0.875 0.125
d 0.875 0.125
d 0.875 0.125
d 0.875 0.125
d 0.875 0.125
d 0.875 0.125
d 0.875 0.125
d 0.875 0.125
d 0.875 0.125
d 0.875 0.125
d 0.875 0.125
d 0.875 0.125
d 0.875 0.125
d 0.875 0.125
d 0.875 0.125
d 0.875 0.125
d 0.875 0.125
d 0.875 0.125
d 0.875 0.125
d 0.875 0.125
d 0.875 0.125
d 0.875 0.125
d 0.875 0.125
d 0.875 0.125
d 0.875 0.125
d 0.875 0.125
d 0.875 0.125
d 0.875 0.125
d 0.875 0.125
d 0.875 0.125
d 0.875 0.125
d 0.875 0.125
d 0.875 0.125
d 0.875 0.125
d 0.875 0.125
d 0.875 0.125
d 0.875 0.125
d 0.875 0.125
d 0.875 0.125
d 0.875 0.125
d 0.875 0.125
d 0.875 0.125
d 0.875 0.125
d 0.875 0.125
d 0.875 0.125
d 0.875 0.125
d 0.875 0.125
d 0.875 0.125
d 0.875 0.125
d 0.875 0.125
d 0.875 0.125
d 0.875 0.125
d 0.875 0.125
d 0.875 0.125
d 0.875 0.125
d 0.875 0.125
d 0.875 0.125
d 0.875 0.125
d 0.875 0.125
d 0.875 0.125
d 0.875 0.125
d 0.875 0.125
d 0.875 0.125
d 0.875 0.125
d 0.875 0.125
d 0.875 0.125
d 0.875 0.125
d 0.875 0.125
d 0.875 0.125
d 0.875 0.125
d 0.875 0.125
d 0.875 0.125
d 0.875 0.125
d 0.875 0.125
d 0.875 0.125
d 0.875 0.125
d 0.875 0.125
d 0.875 0.125
d 0.875 0.125
d 0.875 0.125
d 0.875 0.125
d 0.875 0.125
d 0.875 0.125
d 0.875 0.125
d 0.875 0.125
d 0.875 0.125
d 0.875 0.125
d 0.875 0.125
d 0.875 0.125
d 0.875 0.125
d 0.875 0.125
d 0.875 0.125
d 0.875 0.125
d 0.875 0.125
d 0.875 0.125
d 0.875 0.125
d 0.875 0.125
d 0.875 0.125
d 0.875 0.125
d 0.875 0.125
d 0.875 0.125
d 0.875 0.125
d 0.875 0.125
d 0.875 0.125
d 0.875 0.125
d 0.875 0.125
d 0.875 0.125
d 0.875 0.125
d 0.875 0.125
d 0.875 0.125
d 0.875 0.125
d 0.875 0.125
d 0.875 0.125
d 0.875 0.125
d 0.875 0.125
d 0.875 0.125
d 0.875 0.125
d 0.875 0.125
d 0.875 0.125
d 0.875 0.125
d 0.875 0.125
d 0.875 0.125
d 0.875 0.125
d 0.875 0.125
d 0.875 0.125
d 0.875 0.125
d 0.875 0.125
d 0.875 0.125
d 0.875 0.125
d 0.875 0.125
d 0.875 0.125
d 0.875 0.125
d 0.875 0.125
d 0.875 0.125
d 0.875 0.125
d 0.875 0.125
d 0.875 0.125
d 0.875 0.125
d 0.875 0.125
d 0.875 0.125
d 0.875 0.125
d 0.875 0.125
d 0.875 0.125
d 0.875 0.125
d 0.875 0.125
d 0.875 0.125
d 0.875 0.125
d 0.875 0.125
d 0.875 0.125
d 0.875 0.125
d 0.875 0.125
d 0.875 0.125
d 0.875 0.125
d 0.875 0.125
d 0.875 0.125
d 0.875 0.125
d 0.875 0.125
d 0.875 0.125
d 0.875 0.125
d 0.875 0.125
d 0.875 0.125
d 0.875 0.125
d 0.875 0.125
d 0.875 0.125
d 0.875 0.125
d 0.875 0.125
d 0.875 0.125
d 0.875 0.125
749
-598
719 -606 -0
606 -719 -0
593 -728 -2
728 -593 -2
611 -623 -4
623 -611 -4
754 -714 -6
714 -754 -6
755 -725 -8
725 -755 -8
676 -778 -10
778 -676 -10
616 -724 -12
724 -616 -12
711 -686 -14
686 -711 -14
772 -753 -16
753 -772 -16
660 -760 -18
760 -660 -18
784 -736 -20
736 -784 -20
636 -650 -22
650 -636 -22
747 -610 -24
610 -747 -24
754 -778 -26
778 -754 -26
712 -669 -28
669 -712 -28
785 -659 -30
659 -785 -30
749 -606 -32
606 -749 -32
664 -777 -34
777 -664 -34
636 -665 -36
665 -636 -36
783 -709 -38
709 -783 -38
661 -690 -40
690 -661 -40
701 -697 -42
697 -701 -42
754 -629 -44
629 -754 -44
708 -730 -46
730 -708 -46
635 -740 -48
740 -635 -48
696 -640 -50
640 -696 -50
783 -658 -52
658 -783 -52
633 -618 -54
618 -633 -54
638 -654 -56
654 -638 -56
707 -598 -58
598 -707 -58
652 -673 -60
673 -652 -60
721 -767 -62
767 -721 -62
634 -623 -64
623 -634 -64
760 -768 -66
768 -760 -66
699 -674 -68
674 -699 -68
620 -634 -70
634 -620 -70
758 -703 -72
703 -758 -72
655 -703 -74
703 -655 -74
701 -750 -76
750 -701 -76
680 -777 -78
777 -680 -78
609 -586 -80
586 -609 -80
623 -666 -82
666 -623 -82
731 -669 -84
669 -731 -84
670 -587 -86
587 -670 -86
628 -621 -88
621 -628 -88
755 -741 -90
741 -755 -90
699 -627 -92
627 -699 -92
704 -728 -94
728 -704 -94
727 -748 -96
748 -727 -96
786 -707 -98
707 -786 -98
653 -782 -100
782 -653 -100
782 -681 -102
681 -782 -102
720 -623 -104
623 -720 -104
590 -614 -106
614 -590 -106
745 -641 -108
641 -745 -108
667 -677 -110
677 -667 -110
585 -665 -112
665 -585 -112
774 -747 -114
747 -774 -114
736 -592 -116
592 -736 -116
765 -759 -118
759 -765 -118
650 -674 -120
674 -650 -120
584 -743 -122
743 -584 -122
587 -761 -124
761 -587 -124
769 -632 -126
632 -769 -126
687 -752 -128
752 -687 -128
604 -764 -130
764 -604 -130
597 -687 -132
687 -597 -132
610 -680 -134
680 -610 -134
667 -677 -136
677 -667 -136
762 -683 -138
683 -762 -138
779 -637 -140
637 -779 -140
768 -743 -142
743 -768 -142
691 -596 -144
596 -691 -144
713 -683 -146
683 -713 -146
625 -618 -148
618 -625 -148
754 -763 -150
763 -754 -150
597 -637 -152
637 -597 -152
638 -724 -154
724 -638 -154
612 -697 -156
697 -612 -156
725 -712 -158
712 -725 -158
617 -748 -160
748 -617 -160
614 -622 -162
622 -614 -162
616 -746 -164
746 -616 -164
643 -672 -166
672 -643 -166
643 -584 -168
584 -643 -168
748 -623 -170
623 -748 -170
622 -603 -172
603 -622 -172
611 -776 -174
776 -611 -174
722 -676 -176
676 -722 -176
632 -717 -178
717 -632 -178
695 -690 -180
690 -695 -180
620 -720 -182
720 -620 -182
607 -777 -184
777 -607 -184
634 -726 -186
726 -634 -186
660 -780 -188
780 -660 -188
653 -782 -190
782 -653 -190
704 -687 -192
687 -704 -192
666 -657 -194
657 -666 -194
719 -643 -196
643 -719 -196
713 -762 -198
762 -713 -198
633 -618 -200
618 -633 -200
758 -725 -202
725 -758 -202
661 -598 -204
598 -661 -204
613 -624 -206
624 -613 -206
595 -700 -208
700 -595 -208
779 -593 -210
593 -779 -210
776 -766 -212
766 -776 -212
757 -644 -214
644 -757 -214
599 -673 -216
673 -599 -216
643 -640 -218
640 -643 -218
710 -715 -220
715 -710 -220
671 -761 -222
761 -671 -222
716 -642 -224
642 -716 -224
615 -723 -226
723 -615 -226
744 -759 -228
759 -744 -228
691 -674 -230
674 -691 -230
716 -614 -232
614 -716 -232
699 -631 -234
631 -699 -234
608 -592 -236
592 -608 -236
602 -760 -238
760 -602 -238
674 -659 -240
659 -674 -240
781 -726 -242
726 -781 -242
604 -630 -244
630 -604 -244
597 -649 -246
649 -597 -246
620 -771 -248
771 -620 -248
698 -623 -250
623 -698 -250
591 -609 -252
609 -591 -252
753 -670 -254
670 -753 -254
711 -718 -256
718 -711 -256
682 -695 -258
695 -682 -258
650 -596 -260
596 -650 -260
732 -728 -262
728 -732 -262
643 -644 -264
644 -643 -264
667 -677 -266
677 -667 -266
692 -629 -268
629 -692 -268
674 -627 -270
627 -674 -270
605 -721 -272
721 -605 -272
683 -734 -274
734 -683 -274
648 -607 -276
607 -648 -276
774 -648 -278
648 -774 -278
728 -674 -280
674 -728 -280
765 -759 -282
759 -765 -282
616 -638 -284
638 -616 -284
760 -743 -286
743 -760 -286
783 -763 -288
763 -783 -288
706 -703 -290
703 -706 -290
594 -674 -292
674 -594 -292
781 -720 -294
720 -781 -294
750 -696 -296
696 -750 -296
668 -761 -298
761 -668 -298
765 -609 -300
609 -765 -300
671 -748 -302
748 -671 -302
643 -599 -304
599 -643 -304
747 -774 -306
774 -747 -306
732 -657 -308
657 -732 -308
590 -748 -310
748 -590 -310
639 -603 -312
603 -639 -312
599 -689 -314
689 -599 -314
633 -773 -316
773 -633 -316
757 -749 -318
749 -757 -318
694 -621 -320
621 -694 -320
672 -690 -322
690 -672 -322
752 -728 -324
728 -752 -324
692 -613 -326
613 -692 -326
657 -733 -328
733 -657 -328
693 -710 -330
710 -693 -330
699 -734 -332
734 -699 -332
643 -697 -334
697 -643 -334
707 -598 -336
598 -707 -336
656 -589 -338
589 -656 -338
673 -619 -340
619 -673 -340
772 -735 -342
735 -772 -342
716 -662 -344
662 -716 -344
779 -773 -346
773 -779 -346
755 -748 -348
748 -755 -348
712 -731 -350
731 -712 -350
588 -775 -352
775 -588 -352
660 -677 -354
677 -660 -354
729 -771 -356
771 -729 -356
783 -738 -358
738 -783 -358
611 -699 -360
699 -611 -360
717 -675 -362
675 -717 -362
643 -770 -364
770 -643 -364
770 -665 -366
665 -770 -366
599 -652 -368
652 -599 -368
773 -775 -370
775 -773 -370
742 -689 -372
689 -742 -372
696 -600 -374
600 -696 -374
643 -677 -376
677 -643 -376
679 -652 -378
652 -679 -378
668 -776 -380
776 -668 -380
596 -770 -382
770 -596 -382
610 -774 -384
774 -610 -384
744 -586 -386
586 -744 -386
655 -703 -388
703 -655 -388
750 -658 -390
658 -750 -390
655 -741 -392
741 -655 -392
727 -699 -394
699 -727 -394
677 -651 -396
651 -677 -396
699 -691 -398
691 -699 -398
615 -673 -400
673 -615 -400
599 -589 -402
589 -599 -402
639 -771 -404
771 -639 -404
631 -623 -406
623 -631 -406
748 -639 -408
639 -748 -408
784 -601 -410
601 -784 -410
730 -608 -412
608 -730 -412
635 -709 -414
709 -635 -414
764 -705 -416
705 -764 -416
717 -675 -418
675 -717 -418
737 -764 -420
764 -737 -420
643 -681 -422
681 -643 -422
599 -673 -424
673 -599 -424
616 -696 -426
696 -616 -426
773 -732 -428
732 -773 -428
599 -681 -430
681 -599 -430
754 -722 -432
722 -754 -432
748 -735 -434
735 -748 -434
718 -751 -436
751 -718 -436
672 -659 -438
659 -672 -438
729 -603 -440
603 -729 -440
755 -725 -442
725 -755 -442
625 -629 -444
629 -625 -444
784 -690 -446
690 -784 -446
750 -592 -448
592 -750 -448
694 -642 -450
642 -694 -450
758 -703 -452
703 -758 -452
699 -595 -454
595 -699 -454
762 -662 -456
662 -762 -456
680 -664 -458
664 -680 -458
586 -767 -460
767 -586 -460
729 -748 -462
748 -729 -462
600 -645 -464
645 -600 -464
601 -608 -466
608 -601 -466
782 -689 -468
689 -782 -468
593 -637 -470
637 -593 -470
772 -662 -472
662 -772 -472
684 -661 -474
661 -684 -474
754 -629 -476
629 -754 -476
664 -777 -478
777 -664 -478
755 -766 -480
766 -755 -480
667 -584 -482
584 -667 -482
688 -734 -484
734 -688 -484
647 -753 -486
753 -647 -486
647 -748 -488
748 -647 -488
696 -763 -490
763 -696 -490
692 -618 -492
618 -692 -492
696 -738 -494
738 -696 -494
723 -739 -496
739 -723 -496
682 -704 -498
704 -682 -498
785 -766 -500
766 -785 -500
713 -762 -502
762 -713 -502
616 -724 -504
724 -616 -504
590 -622 -506
622 -590 -506
694 -614 -508
614 -694 -508
644 -749 -510
749 -644 -510
696 -675 -512
675 -696 -512
587 -671 -514
671 -587 -514
728 -700 -516
700 -728 -516
769 -717 -518
717 -769 -518
745 -641 -520
641 -745 -520
727 -647 -522
647 -727 -522
725 -758 -524
758 -725 -524
636 -585 -526
585 -636 -526
755 -774 -528
774 -755 -528
606 -736 -530
736 -606 -530
708 -756 -532
756 -708 -532
685 -715 -534
715 -685 -534
772 -670 -536
670 -772 -536
669 -663 -538
663 -669 -538
615 -679 -540
679 -615 -540
772 -621 -542
621 -772 -542
737 -646 -544
646 -737 -544
667 -768 -546
768 -667 -546
605 -658 -548
658 -605 -548
660 -677 -550
677 -660 -550
754 -722 -552
722 -754 -552
658 -709 -554
709 -658 -554
775 -626 -556
626 -775 -556
604 -629 -558
629 -604 -558
715 -627 -560
627 -715 -560
660 -651 -562
651 -660 -562
769 -661 -564
661 -769 -564
682 -756 -566
756 -682 -566
702 -641 -568
641 -702 -568
750 -736 -570
736 -750 -570
667 -696 -572
696 -667 -572
754 -738 -574
738 -754 -574
599 -679 -576
679 -599 -576
676 -609 -578
609 -676 -578
625 -613 -580
613 -625 -580
783 -632 -582
632 -783 -582